<?xml version="1.0" encoding="UTF-8"?><osil xmlns="os.optimizationservices.org"   xmlns:xsi="http://www.w3.org/2001/XMLSchema-instance" xsi:schemaLocation="os.optimizationservices.org http://www.optimizationservices.org/schemas/2.0/OSiL.xsd" ><instanceHeader><name>q_30_0_100_1</name></instanceHeader><instanceData><variables numberOfVariables="30"><var name="x1" ub="1"/><var name="x2" ub="1"/><var name="x3" ub="1"/><var name="x4" ub="1"/><var name="x5" ub="1"/><var name="x6" ub="1"/><var name="x7" ub="1"/><var name="x8" ub="1"/><var name="x9" ub="1"/><var name="x10" ub="1"/><var name="x11" ub="1"/><var name="x12" ub="1"/><var name="x13" ub="1"/><var name="x14" ub="1"/><var name="x15" ub="1"/><var name="x16" ub="1"/><var name="x17" ub="1"/><var name="x18" ub="1"/><var name="x19" ub="1"/><var name="x20" ub="1"/><var name="x21" ub="1"/><var name="x22" ub="1"/><var name="x23" ub="1"/><var name="x24" ub="1"/><var name="x25" ub="1"/><var name="x26" ub="1"/><var name="x27" ub="1"/><var name="x28" ub="1"/><var name="x29" ub="1"/><var name="x30" ub="1"/></variables><objectives numberOfObjectives="1"><obj maxOrMin="min" name="defObj_x31" numberOfObjCoef="30"><coef idx="0">-.384</coef><coef idx="1">.6866</coef><coef idx="2">.6322</coef><coef idx="3">-.1864</coef><coef idx="4">.73</coef><coef idx="5">.7045</coef><coef idx="6">2.42e-2</coef><coef idx="7">.5528</coef><coef idx="8">-1.43e-2</coef><coef idx="9">-.5903</coef><coef idx="10">-.1097</coef><coef idx="11">-.1329</coef><coef idx="12">-.8906</coef><coef idx="13">.401</coef><coef idx="14">.8385</coef><coef idx="15">-.222</coef><coef idx="16">-.5022</coef><coef idx="17">-.2673</coef><coef idx="18">.9973</coef><coef idx="19">.3242</coef><coef idx="20">-.6405</coef><coef idx="21">.7448</coef><coef idx="22">-.5121</coef><coef idx="23">-.7672</coef><coef idx="24">.6364</coef><coef idx="25">7.13e-2</coef><coef idx="26">.9761</coef><coef idx="27">-.1674</coef><coef idx="28">.6164</coef><coef idx="29">-.5201</coef></obj></objectives><quadraticCoefficients  numberOfQuadraticTerms="465" ><qTerm  idx="-1"  idxOne="0"  idxTwo="0"  coef=".9951"/><qTerm  idx="-1"  idxOne="0"  idxTwo="1"  coef=".1336"/><qTerm  idx="-1"  idxOne="0"  idxTwo="2"  coef=".9318"/><qTerm  idx="-1"  idxOne="0"  idxTwo="3"  coef=".4959"/><qTerm  idx="-1"  idxOne="0"  idxTwo="4"  coef="-.2652"/><qTerm  idx="-1"  idxOne="0"  idxTwo="5"  coef="-3.87e-2"/><qTerm  idx="-1"  idxOne="0"  idxTwo="6"  coef="-.8525"/><qTerm  idx="-1"  idxOne="0"  idxTwo="7"  coef="-.9893"/><qTerm  idx="-1"  idxOne="0"  idxTwo="8"  coef="-.3058"/><qTerm  idx="-1"  idxOne="0"  idxTwo="9"  coef="-.3155"/><qTerm  idx="-1"  idxOne="0"  idxTwo="10"  coef="-.5641"/><qTerm  idx="-1"  idxOne="0"  idxTwo="11"  coef="-.7337"/><qTerm  idx="-1"  idxOne="0"  idxTwo="12"  coef=".801"/><qTerm  idx="-1"  idxOne="0"  idxTwo="13"  coef="-.2265"/><qTerm  idx="-1"  idxOne="0"  idxTwo="14"  coef="-.109"/><qTerm  idx="-1"  idxOne="0"  idxTwo="15"  coef=".3239"/><qTerm  idx="-1"  idxOne="0"  idxTwo="16"  coef="-.9678"/><qTerm  idx="-1"  idxOne="0"  idxTwo="17"  coef=".3017"/><qTerm  idx="-1"  idxOne="0"  idxTwo="18"  coef=".2928"/><qTerm  idx="-1"  idxOne="0"  idxTwo="19"  coef="-.354"/><qTerm  idx="-1"  idxOne="0"  idxTwo="20"  coef=".7114"/><qTerm  idx="-1"  idxOne="0"  idxTwo="21"  coef="-.1974"/><qTerm  idx="-1"  idxOne="0"  idxTwo="22"  coef="-.5863"/><qTerm  idx="-1"  idxOne="0"  idxTwo="23"  coef=".9371"/><qTerm  idx="-1"  idxOne="0"  idxTwo="24"  coef=".1968"/><qTerm  idx="-1"  idxOne="0"  idxTwo="25"  coef=".346"/><qTerm  idx="-1"  idxOne="0"  idxTwo="26"  coef="-8.62e-2"/><qTerm  idx="-1"  idxOne="0"  idxTwo="27"  coef="-.34"/><qTerm  idx="-1"  idxOne="0"  idxTwo="28"  coef="-.7992"/><qTerm  idx="-1"  idxOne="0"  idxTwo="29"  coef=".5109"/><qTerm  idx="-1"  idxOne="1"  idxTwo="1"  coef=".2114"/><qTerm  idx="-1"  idxOne="1"  idxTwo="2"  coef=".4381"/><qTerm  idx="-1"  idxOne="1"  idxTwo="3"  coef=".7947"/><qTerm  idx="-1"  idxOne="1"  idxTwo="4"  coef=".3165"/><qTerm  idx="-1"  idxOne="1"  idxTwo="5"  coef="-.6986"/><qTerm  idx="-1"  idxOne="1"  idxTwo="6"  coef=".2246"/><qTerm  idx="-1"  idxOne="1"  idxTwo="7"  coef=".9573"/><qTerm  idx="-1"  idxOne="1"  idxTwo="8"  coef=".9983"/><qTerm  idx="-1"  idxOne="1"  idxTwo="9"  coef="-.4864"/><qTerm  idx="-1"  idxOne="1"  idxTwo="10"  coef=".1017"/><qTerm  idx="-1"  idxOne="1"  idxTwo="11"  coef=".3181"/><qTerm  idx="-1"  idxOne="1"  idxTwo="12"  coef=".108"/><qTerm  idx="-1"  idxOne="1"  idxTwo="13"  coef=".9555"/><qTerm  idx="-1"  idxOne="1"  idxTwo="14"  coef=".8038"/><qTerm  idx="-1"  idxOne="1"  idxTwo="15"  coef=".3158"/><qTerm  idx="-1"  idxOne="1"  idxTwo="16"  coef=".4577"/><qTerm  idx="-1"  idxOne="1"  idxTwo="17"  coef="-.1951"/><qTerm  idx="-1"  idxOne="1"  idxTwo="18"  coef=".8573"/><qTerm  idx="-1"  idxOne="1"  idxTwo="19"  coef="-.7043"/><qTerm  idx="-1"  idxOne="1"  idxTwo="20"  coef=".3491"/><qTerm  idx="-1"  idxOne="1"  idxTwo="21"  coef=".5392"/><qTerm  idx="-1"  idxOne="1"  idxTwo="22"  coef="-.3214"/><qTerm  idx="-1"  idxOne="1"  idxTwo="23"  coef="-.7684"/><qTerm  idx="-1"  idxOne="1"  idxTwo="24"  coef=".2287"/><qTerm  idx="-1"  idxOne="1"  idxTwo="25"  coef=".6412"/><qTerm  idx="-1"  idxOne="1"  idxTwo="26"  coef=".8942"/><qTerm  idx="-1"  idxOne="1"  idxTwo="27"  coef=".4623"/><qTerm  idx="-1"  idxOne="1"  idxTwo="28"  coef="-4.8e-3"/><qTerm  idx="-1"  idxOne="1"  idxTwo="29"  coef="-.2504"/><qTerm  idx="-1"  idxOne="2"  idxTwo="2"  coef="-.157"/><qTerm  idx="-1"  idxOne="2"  idxTwo="3"  coef=".1058"/><qTerm  idx="-1"  idxOne="2"  idxTwo="4"  coef=".9958"/><qTerm  idx="-1"  idxOne="2"  idxTwo="5"  coef=".9808"/><qTerm  idx="-1"  idxOne="2"  idxTwo="6"  coef=".4926"/><qTerm  idx="-1"  idxOne="2"  idxTwo="7"  coef=".9075"/><qTerm  idx="-1"  idxOne="2"  idxTwo="8"  coef="-.8135"/><qTerm  idx="-1"  idxOne="2"  idxTwo="9"  coef=".468"/><qTerm  idx="-1"  idxOne="2"  idxTwo="10"  coef=".5035"/><qTerm  idx="-1"  idxOne="2"  idxTwo="11"  coef=".8937"/><qTerm  idx="-1"  idxOne="2"  idxTwo="12"  coef=".4124"/><qTerm  idx="-1"  idxOne="2"  idxTwo="13"  coef=".6276"/><qTerm  idx="-1"  idxOne="2"  idxTwo="14"  coef=".1172"/><qTerm  idx="-1"  idxOne="2"  idxTwo="15"  coef="-.8766"/><qTerm  idx="-1"  idxOne="2"  idxTwo="16"  coef="-3.92e-2"/><qTerm  idx="-1"  idxOne="2"  idxTwo="17"  coef=".1954"/><qTerm  idx="-1"  idxOne="2"  idxTwo="18"  coef="-.7249"/><qTerm  idx="-1"  idxOne="2"  idxTwo="19"  coef=".1748"/><qTerm  idx="-1"  idxOne="2"  idxTwo="20"  coef="3.99e-2"/><qTerm  idx="-1"  idxOne="2"  idxTwo="21"  coef=".7718"/><qTerm  idx="-1"  idxOne="2"  idxTwo="22"  coef="-.3924"/><qTerm  idx="-1"  idxOne="2"  idxTwo="23"  coef=".3393"/><qTerm  idx="-1"  idxOne="2"  idxTwo="24"  coef=".3299"/><qTerm  idx="-1"  idxOne="2"  idxTwo="25"  coef="7.4e-3"/><qTerm  idx="-1"  idxOne="2"  idxTwo="26"  coef="-.4768"/><qTerm  idx="-1"  idxOne="2"  idxTwo="27"  coef="-.8469"/><qTerm  idx="-1"  idxOne="2"  idxTwo="28"  coef="-.7975"/><qTerm  idx="-1"  idxOne="2"  idxTwo="29"  coef="9.85e-2"/><qTerm  idx="-1"  idxOne="3"  idxTwo="3"  coef="-.2488"/><qTerm  idx="-1"  idxOne="3"  idxTwo="4"  coef="-.9697"/><qTerm  idx="-1"  idxOne="3"  idxTwo="5"  coef=".5858"/><qTerm  idx="-1"  idxOne="3"  idxTwo="6"  coef=".2418"/><qTerm  idx="-1"  idxOne="3"  idxTwo="7"  coef=".5472"/><qTerm  idx="-1"  idxOne="3"  idxTwo="8"  coef=".9072"/><qTerm  idx="-1"  idxOne="3"  idxTwo="9"  coef="-.7715"/><qTerm  idx="-1"  idxOne="3"  idxTwo="10"  coef="-.3631"/><qTerm  idx="-1"  idxOne="3"  idxTwo="11"  coef=".1936"/><qTerm  idx="-1"  idxOne="3"  idxTwo="12"  coef="-.9037"/><qTerm  idx="-1"  idxOne="3"  idxTwo="13"  coef="-.7716"/><qTerm  idx="-1"  idxOne="3"  idxTwo="14"  coef="-.5681"/><qTerm  idx="-1"  idxOne="3"  idxTwo="15"  coef="-.7989"/><qTerm  idx="-1"  idxOne="3"  idxTwo="16"  coef="-.8533"/><qTerm  idx="-1"  idxOne="3"  idxTwo="17"  coef="-.5063"/><qTerm  idx="-1"  idxOne="3"  idxTwo="18"  coef="-.1132"/><qTerm  idx="-1"  idxOne="3"  idxTwo="19"  coef="-.5833"/><qTerm  idx="-1"  idxOne="3"  idxTwo="20"  coef=".134"/><qTerm  idx="-1"  idxOne="3"  idxTwo="21"  coef="-.9514"/><qTerm  idx="-1"  idxOne="3"  idxTwo="22"  coef="-.1594"/><qTerm  idx="-1"  idxOne="3"  idxTwo="23"  coef="-.2043"/><qTerm  idx="-1"  idxOne="3"  idxTwo="24"  coef=".9532"/><qTerm  idx="-1"  idxOne="3"  idxTwo="25"  coef=".3852"/><qTerm  idx="-1"  idxOne="3"  idxTwo="26"  coef="-.9901"/><qTerm  idx="-1"  idxOne="3"  idxTwo="27"  coef="-.7402"/><qTerm  idx="-1"  idxOne="3"  idxTwo="28"  coef="-.9064"/><qTerm  idx="-1"  idxOne="3"  idxTwo="29"  coef=".6796"/><qTerm  idx="-1"  idxOne="4"  idxTwo="4"  coef=".357"/><qTerm  idx="-1"  idxOne="4"  idxTwo="5"  coef=".1639"/><qTerm  idx="-1"  idxOne="4"  idxTwo="6"  coef=".4671"/><qTerm  idx="-1"  idxOne="4"  idxTwo="7"  coef="-.7679"/><qTerm  idx="-1"  idxOne="4"  idxTwo="8"  coef=".6806"/><qTerm  idx="-1"  idxOne="4"  idxTwo="9"  coef=".67"/><qTerm  idx="-1"  idxOne="4"  idxTwo="10"  coef=".4931"/><qTerm  idx="-1"  idxOne="4"  idxTwo="11"  coef=".6864"/><qTerm  idx="-1"  idxOne="4"  idxTwo="12"  coef="5.77e-2"/><qTerm  idx="-1"  idxOne="4"  idxTwo="13"  coef=".331"/><qTerm  idx="-1"  idxOne="4"  idxTwo="14"  coef=".4615"/><qTerm  idx="-1"  idxOne="4"  idxTwo="15"  coef="-.1788"/><qTerm  idx="-1"  idxOne="4"  idxTwo="16"  coef="-.2886"/><qTerm  idx="-1"  idxOne="4"  idxTwo="17"  coef=".4708"/><qTerm  idx="-1"  idxOne="4"  idxTwo="18"  coef="-5.74e-2"/><qTerm  idx="-1"  idxOne="4"  idxTwo="19"  coef="-7.47e-2"/><qTerm  idx="-1"  idxOne="4"  idxTwo="20"  coef=".5194"/><qTerm  idx="-1"  idxOne="4"  idxTwo="21"  coef=".4049"/><qTerm  idx="-1"  idxOne="4"  idxTwo="22"  coef="-.4841"/><qTerm  idx="-1"  idxOne="4"  idxTwo="23"  coef=".8754"/><qTerm  idx="-1"  idxOne="4"  idxTwo="24"  coef="-8.78e-2"/><qTerm  idx="-1"  idxOne="4"  idxTwo="25"  coef=".617"/><qTerm  idx="-1"  idxOne="4"  idxTwo="26"  coef=".8177"/><qTerm  idx="-1"  idxOne="4"  idxTwo="27"  coef=".3898"/><qTerm  idx="-1"  idxOne="4"  idxTwo="28"  coef="-.561"/><qTerm  idx="-1"  idxOne="4"  idxTwo="29"  coef=".7099"/><qTerm  idx="-1"  idxOne="5"  idxTwo="5"  coef=".4888"/><qTerm  idx="-1"  idxOne="5"  idxTwo="6"  coef="-.3978"/><qTerm  idx="-1"  idxOne="5"  idxTwo="7"  coef=".3439"/><qTerm  idx="-1"  idxOne="5"  idxTwo="8"  coef=".2374"/><qTerm  idx="-1"  idxOne="5"  idxTwo="9"  coef=".9351"/><qTerm  idx="-1"  idxOne="5"  idxTwo="10"  coef=".9805"/><qTerm  idx="-1"  idxOne="5"  idxTwo="11"  coef="-.324"/><qTerm  idx="-1"  idxOne="5"  idxTwo="12"  coef=".8415"/><qTerm  idx="-1"  idxOne="5"  idxTwo="13"  coef="-.3219"/><qTerm  idx="-1"  idxOne="5"  idxTwo="14"  coef=".8619"/><qTerm  idx="-1"  idxOne="5"  idxTwo="15"  coef="9.31e-2"/><qTerm  idx="-1"  idxOne="5"  idxTwo="16"  coef="-6.9e-2"/><qTerm  idx="-1"  idxOne="5"  idxTwo="17"  coef="-.6462"/><qTerm  idx="-1"  idxOne="5"  idxTwo="18"  coef="-.244"/><qTerm  idx="-1"  idxOne="5"  idxTwo="19"  coef="-.6496"/><qTerm  idx="-1"  idxOne="5"  idxTwo="20"  coef="-.2863"/><qTerm  idx="-1"  idxOne="5"  idxTwo="21"  coef=".3314"/><qTerm  idx="-1"  idxOne="5"  idxTwo="22"  coef=".2371"/><qTerm  idx="-1"  idxOne="5"  idxTwo="23"  coef="-6.21e-2"/><qTerm  idx="-1"  idxOne="5"  idxTwo="24"  coef="-.3675"/><qTerm  idx="-1"  idxOne="5"  idxTwo="25"  coef="-.4622"/><qTerm  idx="-1"  idxOne="5"  idxTwo="26"  coef="-.6002"/><qTerm  idx="-1"  idxOne="5"  idxTwo="27"  coef="-.1691"/><qTerm  idx="-1"  idxOne="5"  idxTwo="28"  coef=".9586"/><qTerm  idx="-1"  idxOne="5"  idxTwo="29"  coef="8.64e-2"/><qTerm  idx="-1"  idxOne="6"  idxTwo="6"  coef="-.741"/><qTerm  idx="-1"  idxOne="6"  idxTwo="7"  coef=".6095"/><qTerm  idx="-1"  idxOne="6"  idxTwo="8"  coef=".6916"/><qTerm  idx="-1"  idxOne="6"  idxTwo="9"  coef=".4181"/><qTerm  idx="-1"  idxOne="6"  idxTwo="10"  coef="5.79e-2"/><qTerm  idx="-1"  idxOne="6"  idxTwo="11"  coef=".3277"/><qTerm  idx="-1"  idxOne="6"  idxTwo="12"  coef=".8015"/><qTerm  idx="-1"  idxOne="6"  idxTwo="13"  coef=".8823"/><qTerm  idx="-1"  idxOne="6"  idxTwo="14"  coef="-.7712"/><qTerm  idx="-1"  idxOne="6"  idxTwo="15"  coef=".7333"/><qTerm  idx="-1"  idxOne="6"  idxTwo="16"  coef=".2647"/><qTerm  idx="-1"  idxOne="6"  idxTwo="17"  coef="-.5144"/><qTerm  idx="-1"  idxOne="6"  idxTwo="18"  coef="-.6792"/><qTerm  idx="-1"  idxOne="6"  idxTwo="19"  coef="-.9575"/><qTerm  idx="-1"  idxOne="6"  idxTwo="20"  coef="-.6195"/><qTerm  idx="-1"  idxOne="6"  idxTwo="21"  coef="-.3753"/><qTerm  idx="-1"  idxOne="6"  idxTwo="22"  coef=".6193"/><qTerm  idx="-1"  idxOne="6"  idxTwo="23"  coef=".1474"/><qTerm  idx="-1"  idxOne="6"  idxTwo="24"  coef=".6525"/><qTerm  idx="-1"  idxOne="6"  idxTwo="25"  coef="-.4271"/><qTerm  idx="-1"  idxOne="6"  idxTwo="26"  coef="-.679"/><qTerm  idx="-1"  idxOne="6"  idxTwo="27"  coef="-.3382"/><qTerm  idx="-1"  idxOne="6"  idxTwo="28"  coef="-.4683"/><qTerm  idx="-1"  idxOne="6"  idxTwo="29"  coef="8.96e-2"/><qTerm  idx="-1"  idxOne="7"  idxTwo="7"  coef=".107"/><qTerm  idx="-1"  idxOne="7"  idxTwo="8"  coef="-.9568"/><qTerm  idx="-1"  idxOne="7"  idxTwo="9"  coef="-.7025"/><qTerm  idx="-1"  idxOne="7"  idxTwo="10"  coef="-.7902"/><qTerm  idx="-1"  idxOne="7"  idxTwo="11"  coef=".2284"/><qTerm  idx="-1"  idxOne="7"  idxTwo="12"  coef="-.1874"/><qTerm  idx="-1"  idxOne="7"  idxTwo="13"  coef=".8031"/><qTerm  idx="-1"  idxOne="7"  idxTwo="14"  coef=".8857"/><qTerm  idx="-1"  idxOne="7"  idxTwo="15"  coef="-.6868"/><qTerm  idx="-1"  idxOne="7"  idxTwo="16"  coef=".8739"/><qTerm  idx="-1"  idxOne="7"  idxTwo="17"  coef="-.7291"/><qTerm  idx="-1"  idxOne="7"  idxTwo="18"  coef="-.2574"/><qTerm  idx="-1"  idxOne="7"  idxTwo="19"  coef="-.357"/><qTerm  idx="-1"  idxOne="7"  idxTwo="20"  coef=".4299"/><qTerm  idx="-1"  idxOne="7"  idxTwo="21"  coef=".4594"/><qTerm  idx="-1"  idxOne="7"  idxTwo="22"  coef="-.2428"/><qTerm  idx="-1"  idxOne="7"  idxTwo="23"  coef=".6579"/><qTerm  idx="-1"  idxOne="7"  idxTwo="24"  coef=".9073"/><qTerm  idx="-1"  idxOne="7"  idxTwo="25"  coef="-.3832"/><qTerm  idx="-1"  idxOne="7"  idxTwo="26"  coef=".1595"/><qTerm  idx="-1"  idxOne="7"  idxTwo="27"  coef="-.5331"/><qTerm  idx="-1"  idxOne="7"  idxTwo="28"  coef=".6888"/><qTerm  idx="-1"  idxOne="7"  idxTwo="29"  coef="-.4837"/><qTerm  idx="-1"  idxOne="8"  idxTwo="8"  coef=".6795"/><qTerm  idx="-1"  idxOne="8"  idxTwo="9"  coef="7.53e-2"/><qTerm  idx="-1"  idxOne="8"  idxTwo="10"  coef=".2431"/><qTerm  idx="-1"  idxOne="8"  idxTwo="11"  coef="-1.84e-2"/><qTerm  idx="-1"  idxOne="8"  idxTwo="12"  coef="-.4303"/><qTerm  idx="-1"  idxOne="8"  idxTwo="13"  coef="-.5289"/><qTerm  idx="-1"  idxOne="8"  idxTwo="14"  coef=".3028"/><qTerm  idx="-1"  idxOne="8"  idxTwo="15"  coef=".2143"/><qTerm  idx="-1"  idxOne="8"  idxTwo="16"  coef="-.2037"/><qTerm  idx="-1"  idxOne="8"  idxTwo="17"  coef=".6976"/><qTerm  idx="-1"  idxOne="8"  idxTwo="18"  coef=".2752"/><qTerm  idx="-1"  idxOne="8"  idxTwo="19"  coef="-.4824"/><qTerm  idx="-1"  idxOne="8"  idxTwo="20"  coef="-.2823"/><qTerm  idx="-1"  idxOne="8"  idxTwo="21"  coef=".1237"/><qTerm  idx="-1"  idxOne="8"  idxTwo="22"  coef="-.7571"/><qTerm  idx="-1"  idxOne="8"  idxTwo="23"  coef=".9569"/><qTerm  idx="-1"  idxOne="8"  idxTwo="24"  coef="-.2336"/><qTerm  idx="-1"  idxOne="8"  idxTwo="25"  coef=".4414"/><qTerm  idx="-1"  idxOne="8"  idxTwo="26"  coef="-.2835"/><qTerm  idx="-1"  idxOne="8"  idxTwo="27"  coef=".8198"/><qTerm  idx="-1"  idxOne="8"  idxTwo="28"  coef="8.74e-2"/><qTerm  idx="-1"  idxOne="8"  idxTwo="29"  coef=".9194"/><qTerm  idx="-1"  idxOne="9"  idxTwo="9"  coef=".8589"/><qTerm  idx="-1"  idxOne="9"  idxTwo="10"  coef=".2666"/><qTerm  idx="-1"  idxOne="9"  idxTwo="11"  coef="-.4088"/><qTerm  idx="-1"  idxOne="9"  idxTwo="12"  coef="-.6505"/><qTerm  idx="-1"  idxOne="9"  idxTwo="13"  coef=".6852"/><qTerm  idx="-1"  idxOne="9"  idxTwo="14"  coef=".2372"/><qTerm  idx="-1"  idxOne="9"  idxTwo="15"  coef=".4118"/><qTerm  idx="-1"  idxOne="9"  idxTwo="16"  coef="-.5151"/><qTerm  idx="-1"  idxOne="9"  idxTwo="17"  coef=".5959"/><qTerm  idx="-1"  idxOne="9"  idxTwo="18"  coef="-.218"/><qTerm  idx="-1"  idxOne="9"  idxTwo="19"  coef="-.7801"/><qTerm  idx="-1"  idxOne="9"  idxTwo="20"  coef=".5074"/><qTerm  idx="-1"  idxOne="9"  idxTwo="21"  coef="-.9404"/><qTerm  idx="-1"  idxOne="9"  idxTwo="22"  coef=".4013"/><qTerm  idx="-1"  idxOne="9"  idxTwo="23"  coef="5.04e-2"/><qTerm  idx="-1"  idxOne="9"  idxTwo="24"  coef=".5051"/><qTerm  idx="-1"  idxOne="9"  idxTwo="25"  coef=".2954"/><qTerm  idx="-1"  idxOne="9"  idxTwo="26"  coef=".7422"/><qTerm  idx="-1"  idxOne="9"  idxTwo="27"  coef=".6614"/><qTerm  idx="-1"  idxOne="9"  idxTwo="28"  coef=".9144"/><qTerm  idx="-1"  idxOne="9"  idxTwo="29"  coef="-.5555"/><qTerm  idx="-1"  idxOne="10"  idxTwo="10"  coef=".159"/><qTerm  idx="-1"  idxOne="10"  idxTwo="11"  coef=".9815"/><qTerm  idx="-1"  idxOne="10"  idxTwo="12"  coef=".6799"/><qTerm  idx="-1"  idxOne="10"  idxTwo="13"  coef="-.6504"/><qTerm  idx="-1"  idxOne="10"  idxTwo="14"  coef=".4191"/><qTerm  idx="-1"  idxOne="10"  idxTwo="15"  coef="-.3969"/><qTerm  idx="-1"  idxOne="10"  idxTwo="16"  coef="-.9499"/><qTerm  idx="-1"  idxOne="10"  idxTwo="17"  coef=".8335"/><qTerm  idx="-1"  idxOne="10"  idxTwo="18"  coef=".3776"/><qTerm  idx="-1"  idxOne="10"  idxTwo="19"  coef=".5135"/><qTerm  idx="-1"  idxOne="10"  idxTwo="20"  coef=".8655"/><qTerm  idx="-1"  idxOne="10"  idxTwo="21"  coef="-.89"/><qTerm  idx="-1"  idxOne="10"  idxTwo="22"  coef="-2.1e-3"/><qTerm  idx="-1"  idxOne="10"  idxTwo="23"  coef="-.881"/><qTerm  idx="-1"  idxOne="10"  idxTwo="24"  coef="-.6563"/><qTerm  idx="-1"  idxOne="10"  idxTwo="25"  coef=".3767"/><qTerm  idx="-1"  idxOne="10"  idxTwo="26"  coef="-.3868"/><qTerm  idx="-1"  idxOne="10"  idxTwo="27"  coef=".4704"/><qTerm  idx="-1"  idxOne="10"  idxTwo="28"  coef=".5043"/><qTerm  idx="-1"  idxOne="10"  idxTwo="29"  coef="-.2086"/><qTerm  idx="-1"  idxOne="11"  idxTwo="11"  coef="-.8244"/><qTerm  idx="-1"  idxOne="11"  idxTwo="12"  coef="-.9021"/><qTerm  idx="-1"  idxOne="11"  idxTwo="13"  coef=".5587"/><qTerm  idx="-1"  idxOne="11"  idxTwo="14"  coef=".3616"/><qTerm  idx="-1"  idxOne="11"  idxTwo="15"  coef="-.3769"/><qTerm  idx="-1"  idxOne="11"  idxTwo="16"  coef="4.55e-2"/><qTerm  idx="-1"  idxOne="11"  idxTwo="17"  coef="1.16e-2"/><qTerm  idx="-1"  idxOne="11"  idxTwo="18"  coef="-.1229"/><qTerm  idx="-1"  idxOne="11"  idxTwo="19"  coef=".1753"/><qTerm  idx="-1"  idxOne="11"  idxTwo="20"  coef="-.4053"/><qTerm  idx="-1"  idxOne="11"  idxTwo="21"  coef="-.4102"/><qTerm  idx="-1"  idxOne="11"  idxTwo="22"  coef="-.8524"/><qTerm  idx="-1"  idxOne="11"  idxTwo="23"  coef=".9499"/><qTerm  idx="-1"  idxOne="11"  idxTwo="24"  coef=".4563"/><qTerm  idx="-1"  idxOne="11"  idxTwo="25"  coef=".5162"/><qTerm  idx="-1"  idxOne="11"  idxTwo="26"  coef="-.3816"/><qTerm  idx="-1"  idxOne="11"  idxTwo="27"  coef="-.507"/><qTerm  idx="-1"  idxOne="11"  idxTwo="28"  coef="-.4862"/><qTerm  idx="-1"  idxOne="11"  idxTwo="29"  coef=".2361"/><qTerm  idx="-1"  idxOne="12"  idxTwo="12"  coef=".8756"/><qTerm  idx="-1"  idxOne="12"  idxTwo="13"  coef=".9844"/><qTerm  idx="-1"  idxOne="12"  idxTwo="14"  coef="-.5504"/><qTerm  idx="-1"  idxOne="12"  idxTwo="15"  coef=".8946"/><qTerm  idx="-1"  idxOne="12"  idxTwo="16"  coef=".6956"/><qTerm  idx="-1"  idxOne="12"  idxTwo="17"  coef=".4003"/><qTerm  idx="-1"  idxOne="12"  idxTwo="18"  coef=".1089"/><qTerm  idx="-1"  idxOne="12"  idxTwo="19"  coef="-.1168"/><qTerm  idx="-1"  idxOne="12"  idxTwo="20"  coef="-.5016"/><qTerm  idx="-1"  idxOne="12"  idxTwo="21"  coef=".7953"/><qTerm  idx="-1"  idxOne="12"  idxTwo="22"  coef="-.7085"/><qTerm  idx="-1"  idxOne="12"  idxTwo="23"  coef="-.1308"/><qTerm  idx="-1"  idxOne="12"  idxTwo="24"  coef="-8.52e-2"/><qTerm  idx="-1"  idxOne="12"  idxTwo="25"  coef="-.3812"/><qTerm  idx="-1"  idxOne="12"  idxTwo="26"  coef="-3.82e-2"/><qTerm  idx="-1"  idxOne="12"  idxTwo="27"  coef=".3795"/><qTerm  idx="-1"  idxOne="12"  idxTwo="28"  coef=".6216"/><qTerm  idx="-1"  idxOne="12"  idxTwo="29"  coef="-.2157"/><qTerm  idx="-1"  idxOne="13"  idxTwo="13"  coef="-.4137"/><qTerm  idx="-1"  idxOne="13"  idxTwo="14"  coef=".152"/><qTerm  idx="-1"  idxOne="13"  idxTwo="15"  coef=".4507"/><qTerm  idx="-1"  idxOne="13"  idxTwo="16"  coef="-.7145"/><qTerm  idx="-1"  idxOne="13"  idxTwo="17"  coef="-.3329"/><qTerm  idx="-1"  idxOne="13"  idxTwo="18"  coef="-.6792"/><qTerm  idx="-1"  idxOne="13"  idxTwo="19"  coef="6.92e-2"/><qTerm  idx="-1"  idxOne="13"  idxTwo="20"  coef=".4467"/><qTerm  idx="-1"  idxOne="13"  idxTwo="21"  coef="-.5436"/><qTerm  idx="-1"  idxOne="13"  idxTwo="22"  coef="-.602"/><qTerm  idx="-1"  idxOne="13"  idxTwo="23"  coef=".9452"/><qTerm  idx="-1"  idxOne="13"  idxTwo="24"  coef=".9871"/><qTerm  idx="-1"  idxOne="13"  idxTwo="25"  coef="-.8361"/><qTerm  idx="-1"  idxOne="13"  idxTwo="26"  coef="-.4982"/><qTerm  idx="-1"  idxOne="13"  idxTwo="27"  coef="-.5683"/><qTerm  idx="-1"  idxOne="13"  idxTwo="28"  coef="-.6084"/><qTerm  idx="-1"  idxOne="13"  idxTwo="29"  coef=".7005"/><qTerm  idx="-1"  idxOne="14"  idxTwo="14"  coef="-.9106"/><qTerm  idx="-1"  idxOne="14"  idxTwo="15"  coef=".7278"/><qTerm  idx="-1"  idxOne="14"  idxTwo="16"  coef="-.8657"/><qTerm  idx="-1"  idxOne="14"  idxTwo="17"  coef="-.1454"/><qTerm  idx="-1"  idxOne="14"  idxTwo="18"  coef="-.7254"/><qTerm  idx="-1"  idxOne="14"  idxTwo="19"  coef="-.7618"/><qTerm  idx="-1"  idxOne="14"  idxTwo="20"  coef="-.3881"/><qTerm  idx="-1"  idxOne="14"  idxTwo="21"  coef=".2265"/><qTerm  idx="-1"  idxOne="14"  idxTwo="22"  coef=".3273"/><qTerm  idx="-1"  idxOne="14"  idxTwo="23"  coef=".7918"/><qTerm  idx="-1"  idxOne="14"  idxTwo="24"  coef=".5074"/><qTerm  idx="-1"  idxOne="14"  idxTwo="25"  coef=".2597"/><qTerm  idx="-1"  idxOne="14"  idxTwo="26"  coef="-.558"/><qTerm  idx="-1"  idxOne="14"  idxTwo="27"  coef="-3.23e-2"/><qTerm  idx="-1"  idxOne="14"  idxTwo="28"  coef=".23"/><qTerm  idx="-1"  idxOne="14"  idxTwo="29"  coef=".9753"/><qTerm  idx="-1"  idxOne="15"  idxTwo="15"  coef=".1184"/><qTerm  idx="-1"  idxOne="15"  idxTwo="16"  coef="-.2582"/><qTerm  idx="-1"  idxOne="15"  idxTwo="17"  coef="-.3248"/><qTerm  idx="-1"  idxOne="15"  idxTwo="18"  coef=".4909"/><qTerm  idx="-1"  idxOne="15"  idxTwo="19"  coef=".1395"/><qTerm  idx="-1"  idxOne="15"  idxTwo="20"  coef="-8.77e-2"/><qTerm  idx="-1"  idxOne="15"  idxTwo="21"  coef=".2964"/><qTerm  idx="-1"  idxOne="15"  idxTwo="22"  coef=".3672"/><qTerm  idx="-1"  idxOne="15"  idxTwo="23"  coef="-.6592"/><qTerm  idx="-1"  idxOne="15"  idxTwo="24"  coef="-.4539"/><qTerm  idx="-1"  idxOne="15"  idxTwo="25"  coef="-.1185"/><qTerm  idx="-1"  idxOne="15"  idxTwo="26"  coef="-8.46e-2"/><qTerm  idx="-1"  idxOne="15"  idxTwo="27"  coef="-.2095"/><qTerm  idx="-1"  idxOne="15"  idxTwo="28"  coef=".3767"/><qTerm  idx="-1"  idxOne="15"  idxTwo="29"  coef="-.4022"/><qTerm  idx="-1"  idxOne="16"  idxTwo="16"  coef="-.5895"/><qTerm  idx="-1"  idxOne="16"  idxTwo="17"  coef="-.6154"/><qTerm  idx="-1"  idxOne="16"  idxTwo="18"  coef="-.162"/><qTerm  idx="-1"  idxOne="16"  idxTwo="19"  coef=".3813"/><qTerm  idx="-1"  idxOne="16"  idxTwo="20"  coef="-.7189"/><qTerm  idx="-1"  idxOne="16"  idxTwo="21"  coef="-.7125"/><qTerm  idx="-1"  idxOne="16"  idxTwo="22"  coef=".3249"/><qTerm  idx="-1"  idxOne="16"  idxTwo="23"  coef=".1514"/><qTerm  idx="-1"  idxOne="16"  idxTwo="24"  coef=".5499"/><qTerm  idx="-1"  idxOne="16"  idxTwo="25"  coef=".5506"/><qTerm  idx="-1"  idxOne="16"  idxTwo="26"  coef=".5307"/><qTerm  idx="-1"  idxOne="16"  idxTwo="27"  coef=".753"/><qTerm  idx="-1"  idxOne="16"  idxTwo="28"  coef="-.8016"/><qTerm  idx="-1"  idxOne="16"  idxTwo="29"  coef="-.331"/><qTerm  idx="-1"  idxOne="17"  idxTwo="17"  coef=".2902"/><qTerm  idx="-1"  idxOne="17"  idxTwo="18"  coef="-.7368"/><qTerm  idx="-1"  idxOne="17"  idxTwo="19"  coef=".6151"/><qTerm  idx="-1"  idxOne="17"  idxTwo="20"  coef="8.37e-2"/><qTerm  idx="-1"  idxOne="17"  idxTwo="21"  coef="-.4685"/><qTerm  idx="-1"  idxOne="17"  idxTwo="22"  coef="-8.23e-2"/><qTerm  idx="-1"  idxOne="17"  idxTwo="23"  coef="2.19e-2"/><qTerm  idx="-1"  idxOne="17"  idxTwo="24"  coef="9.7e-3"/><qTerm  idx="-1"  idxOne="17"  idxTwo="25"  coef=".9235"/><qTerm  idx="-1"  idxOne="17"  idxTwo="26"  coef=".1005"/><qTerm  idx="-1"  idxOne="17"  idxTwo="27"  coef="-.6207"/><qTerm  idx="-1"  idxOne="17"  idxTwo="28"  coef="-.5978"/><qTerm  idx="-1"  idxOne="17"  idxTwo="29"  coef="-.5025"/><qTerm  idx="-1"  idxOne="18"  idxTwo="18"  coef=".9402"/><qTerm  idx="-1"  idxOne="18"  idxTwo="19"  coef=".5528"/><qTerm  idx="-1"  idxOne="18"  idxTwo="20"  coef="-.4546"/><qTerm  idx="-1"  idxOne="18"  idxTwo="21"  coef="-6.1e-3"/><qTerm  idx="-1"  idxOne="18"  idxTwo="22"  coef="-.2025"/><qTerm  idx="-1"  idxOne="18"  idxTwo="23"  coef=".2266"/><qTerm  idx="-1"  idxOne="18"  idxTwo="24"  coef="-.8295"/><qTerm  idx="-1"  idxOne="18"  idxTwo="25"  coef=".474"/><qTerm  idx="-1"  idxOne="18"  idxTwo="26"  coef=".7257"/><qTerm  idx="-1"  idxOne="18"  idxTwo="27"  coef="-.3179"/><qTerm  idx="-1"  idxOne="18"  idxTwo="28"  coef=".3889"/><qTerm  idx="-1"  idxOne="18"  idxTwo="29"  coef=".2838"/><qTerm  idx="-1"  idxOne="19"  idxTwo="19"  coef="-.829"/><qTerm  idx="-1"  idxOne="19"  idxTwo="20"  coef=".416"/><qTerm  idx="-1"  idxOne="19"  idxTwo="21"  coef=".1849"/><qTerm  idx="-1"  idxOne="19"  idxTwo="22"  coef="-.5344"/><qTerm  idx="-1"  idxOne="19"  idxTwo="23"  coef="-.8496"/><qTerm  idx="-1"  idxOne="19"  idxTwo="24"  coef="-.3513"/><qTerm  idx="-1"  idxOne="19"  idxTwo="25"  coef=".8262"/><qTerm  idx="-1"  idxOne="19"  idxTwo="26"  coef="-.5914"/><qTerm  idx="-1"  idxOne="19"  idxTwo="27"  coef="-9.45e-2"/><qTerm  idx="-1"  idxOne="19"  idxTwo="28"  coef=".4543"/><qTerm  idx="-1"  idxOne="19"  idxTwo="29"  coef="-.9433"/><qTerm  idx="-1"  idxOne="20"  idxTwo="20"  coef="3.41e-2"/><qTerm  idx="-1"  idxOne="20"  idxTwo="21"  coef=".5353"/><qTerm  idx="-1"  idxOne="20"  idxTwo="22"  coef=".7887"/><qTerm  idx="-1"  idxOne="20"  idxTwo="23"  coef=".889"/><qTerm  idx="-1"  idxOne="20"  idxTwo="24"  coef="-.4204"/><qTerm  idx="-1"  idxOne="20"  idxTwo="25"  coef="6.29e-2"/><qTerm  idx="-1"  idxOne="20"  idxTwo="26"  coef="-.5343"/><qTerm  idx="-1"  idxOne="20"  idxTwo="27"  coef="-.3744"/><qTerm  idx="-1"  idxOne="20"  idxTwo="28"  coef="-.717"/><qTerm  idx="-1"  idxOne="20"  idxTwo="29"  coef="-.3148"/><qTerm  idx="-1"  idxOne="21"  idxTwo="21"  coef="-.6929"/><qTerm  idx="-1"  idxOne="21"  idxTwo="22"  coef=".6984"/><qTerm  idx="-1"  idxOne="21"  idxTwo="23"  coef=".9441"/><qTerm  idx="-1"  idxOne="21"  idxTwo="24"  coef="-.1182"/><qTerm  idx="-1"  idxOne="21"  idxTwo="25"  coef=".5489"/><qTerm  idx="-1"  idxOne="21"  idxTwo="26"  coef="-8.76e-2"/><qTerm  idx="-1"  idxOne="21"  idxTwo="27"  coef=".729"/><qTerm  idx="-1"  idxOne="21"  idxTwo="28"  coef=".456"/><qTerm  idx="-1"  idxOne="21"  idxTwo="29"  coef=".2747"/><qTerm  idx="-1"  idxOne="22"  idxTwo="22"  coef=".4481"/><qTerm  idx="-1"  idxOne="22"  idxTwo="23"  coef=".2084"/><qTerm  idx="-1"  idxOne="22"  idxTwo="24"  coef="-.9474"/><qTerm  idx="-1"  idxOne="22"  idxTwo="25"  coef="-.4145"/><qTerm  idx="-1"  idxOne="22"  idxTwo="26"  coef="-.6056"/><qTerm  idx="-1"  idxOne="22"  idxTwo="27"  coef=".8973"/><qTerm  idx="-1"  idxOne="22"  idxTwo="28"  coef="6.37e-2"/><qTerm  idx="-1"  idxOne="22"  idxTwo="29"  coef="-.9793"/><qTerm  idx="-1"  idxOne="23"  idxTwo="23"  coef="-9.57e-2"/><qTerm  idx="-1"  idxOne="23"  idxTwo="24"  coef=".9272"/><qTerm  idx="-1"  idxOne="23"  idxTwo="25"  coef=".9722"/><qTerm  idx="-1"  idxOne="23"  idxTwo="26"  coef="-.3182"/><qTerm  idx="-1"  idxOne="23"  idxTwo="27"  coef=".9186"/><qTerm  idx="-1"  idxOne="23"  idxTwo="28"  coef="-.3466"/><qTerm  idx="-1"  idxOne="23"  idxTwo="29"  coef=".4085"/><qTerm  idx="-1"  idxOne="24"  idxTwo="24"  coef=".5809"/><qTerm  idx="-1"  idxOne="24"  idxTwo="25"  coef=".4471"/><qTerm  idx="-1"  idxOne="24"  idxTwo="26"  coef=".4579"/><qTerm  idx="-1"  idxOne="24"  idxTwo="27"  coef="-.1092"/><qTerm  idx="-1"  idxOne="24"  idxTwo="28"  coef="-.2364"/><qTerm  idx="-1"  idxOne="24"  idxTwo="29"  coef=".8444"/><qTerm  idx="-1"  idxOne="25"  idxTwo="25"  coef=".4968"/><qTerm  idx="-1"  idxOne="25"  idxTwo="26"  coef="-.1465"/><qTerm  idx="-1"  idxOne="25"  idxTwo="27"  coef="-.5651"/><qTerm  idx="-1"  idxOne="25"  idxTwo="28"  coef=".4588"/><qTerm  idx="-1"  idxOne="25"  idxTwo="29"  coef=".5938"/><qTerm  idx="-1"  idxOne="26"  idxTwo="26"  coef=".1168"/><qTerm  idx="-1"  idxOne="26"  idxTwo="27"  coef=".7708"/><qTerm  idx="-1"  idxOne="26"  idxTwo="28"  coef="-.2337"/><qTerm  idx="-1"  idxOne="26"  idxTwo="29"  coef="-.5184"/><qTerm  idx="-1"  idxOne="27"  idxTwo="27"  coef="-.3698"/><qTerm  idx="-1"  idxOne="27"  idxTwo="28"  coef="-.1342"/><qTerm  idx="-1"  idxOne="27"  idxTwo="29"  coef="-.904"/><qTerm  idx="-1"  idxOne="28"  idxTwo="28"  coef="-.1518"/><qTerm  idx="-1"  idxOne="28"  idxTwo="29"  coef=".4747"/><qTerm  idx="-1"  idxOne="29"  idxTwo="29"  coef=".7456"/></quadraticCoefficients></instanceData></osil>
